c "913815.clq"
p edge 80 304
e 1 5
e 1 6
e 1 7
e 1 9
e 1 10
e 1 11
e 1 12
e 1 17
e 1 18
e 1 31
e 1 38
e 1 52
e 1 60
e 1 61
e 1 64
e 1 70
e 1 76
e 1 80
e 2 5
e 2 6
e 2 8
e 2 15
e 2 22
e 2 23
e 2 26
e 2 27
e 2 28
e 2 32
e 2 33
e 2 48
e 2 52
e 2 54
e 2 60
e 2 67
e 2 70
e 2 72
e 2 75
e 3 5
e 3 6
e 3 7
e 3 10
e 3 11
e 3 14
e 3 20
e 3 27
e 3 28
e 3 31
e 3 34
e 3 36
e 3 38
e 3 43
e 3 45
e 4 5
e 4 8
e 4 64
e 5 6
e 5 7
e 5 8
e 5 9
e 5 10
e 5 12
e 5 13
e 5 14
e 5 15
e 5 16
e 5 17
e 5 18
e 5 20
e 5 23
e 5 24
e 5 26
e 5 27
e 5 30
e 5 41
e 5 42
e 5 48
e 5 54
e 5 59
e 5 75
e 5 79
e 6 7
e 6 8
e 6 21
e 6 25
e 6 32
e 6 33
e 6 37
e 6 42
e 6 43
e 6 47
e 6 50
e 6 55
e 6 70
e 6 72
e 7 9
e 7 11
e 7 12
e 7 13
e 7 16
e 7 19
e 7 30
e 7 31
e 7 51
e 7 56
e 7 65
e 7 79
e 8 9
e 8 16
e 8 28
e 8 41
e 8 45
e 8 46
e 8 48
e 8 57
e 8 74
e 9 10
e 9 12
e 9 13
e 9 14
e 9 15
e 9 16
e 9 17
e 9 18
e 9 20
e 9 21
e 9 22
e 9 23
e 9 24
e 9 25
e 9 32
e 9 35
e 9 36
e 9 42
e 9 43
e 9 56
e 9 62
e 9 64
e 9 77
e 10 11
e 10 15
e 10 18
e 10 38
e 10 50
e 10 51
e 10 53
e 10 77
e 11 13
e 11 14
e 11 17
e 11 28
e 11 31
e 11 35
e 11 38
e 11 40
e 11 49
e 11 54
e 11 63
e 11 70
e 12 19
e 12 20
e 12 22
e 12 33
e 12 41
e 13 37
e 14 19
e 14 22
e 14 67
e 15 21
e 15 26
e 15 29
e 15 34
e 15 36
e 15 47
e 15 54
e 15 57
e 15 61
e 15 62
e 15 65
e 15 72
e 15 80
e 16 25
e 17 24
e 17 49
e 17 53
e 18 19
e 18 21
e 18 23
e 18 37
e 18 39
e 18 77
e 19 78
e 20 24
e 20 29
e 20 35
e 20 39
e 20 46
e 20 47
e 20 59
e 21 25
e 21 26
e 21 34
e 21 36
e 21 43
e 22 35
e 22 44
e 22 74
e 23 29
e 23 39
e 23 42
e 23 48
e 23 60
e 23 63
e 23 65
e 23 71
e 23 73
e 23 75
e 24 27
e 24 30
e 24 40
e 24 46
e 24 55
e 24 60
e 24 73
e 25 32
e 25 59
e 25 63
e 25 67
e 25 71
e 26 53
e 26 57
e 26 68
e 27 29
e 27 44
e 27 73
e 28 30
e 28 76
e 29 58
e 29 66
e 30 33
e 30 39
e 30 49
e 30 69
e 30 72
e 30 75
e 31 40
e 31 44
e 31 56
e 31 63
e 32 34
e 32 55
e 32 59
e 32 66
e 32 69
e 33 40
e 33 58
e 34 37
e 34 46
e 35 41
e 35 45
e 35 50
e 35 57
e 35 64
e 35 68
e 37 55
e 37 76
e 39 45
e 39 52
e 39 58
e 39 78
e 40 44
e 40 49
e 40 51
e 40 71
e 42 47
e 42 50
e 42 52
e 42 67
e 43 61
e 43 78
e 43 79
e 44 62
e 45 74
e 47 58
e 49 51
e 49 53
e 49 69
e 51 65
e 51 74
e 52 56
e 53 62
e 53 68
e 54 80
e 55 61
e 55 73
e 56 69
e 59 66
e 59 68
e 64 80
e 65 66
e 65 76
e 66 79
e 67 71
e 70 78
e 72 77
